(declare-fun P (Int) Bool)
(declare-fun S () (Set list))
(declare-fun l () list)
(assert ((_ is cons) l))
(assert (member l S))
(assert (member nil S))
(assert (not (P 0)))
(check-sat)
(declare-fun P (Int) Bool)
(declare-fun S () (Set list))
(declare-fun l () list)
(assert ((_ is cons) l))
(assert (member l S))
(assert (member nil S))
(assert (not (P 0)))
(check-sat)
